% demand
num_movements = 36;
loading_factor = [1100, 1900, 1750, 1200, 1950, 1950, 1000, 1150, 1250, 1700, 1850, 900, 1150, 1800, 1750, 900, 950, 1600, 1800, 1200, 900, 1100, 1850, 1200, 1850, 900, 1650, 1300, 1350, 1900, 1100, 1450, 1100, 1250, 1200, 1650];
pickup_time = [0, 0, 0, 0, 0, 0, 0, 2, 2, 3, 3, 3, 3, 4, 4, 4, 4, 5, 5, 6, 6, 6, 7, 9, 9, 10, 10, 10, 11, 11, 11, 11, 11, 11, 11, 11];
delivery_time = [1, 1, 1, 1, 3, 1, 1, 3, 3, 6, 6, 6, 5, 9, 5, 5, 10, 9, 7, 9, 9, 9, 8, 10, 10, 11, 11, 11, 12, 12, 12, 12, 12, 12, 12, 12];

% transporter definition
total_capacity = 11000;
num_decks = 4;
capacity = [3000, 3000, 1000, 4000];

% ways out of decks
num_ways_out = 2;
paths_out = array3d(decks, ways_out, decks, [
% ways out of deck d1
2, 4, 0, 0, 3, 4, 0, 0, 

% ways out of deck d2
4, 0, 0, 0, 0, 0, 0, 0,	

% ways out of deck d3
4, 0, 0, 0, 0, 0, 0, 0,	

% ways out of deck d4
0, 0, 0, 0,	0, 0, 0, 0,	

]);

